Normalized Data/p01_6_normalized_split0.vrp
NAME:p01_6_NORMALIZED_split
BEST_KNOWN: 0
COMMENT: 0
DIMENSION: 201
CAPACITY: 100
EDGE_WEIGHT_FORMAT: FUNCTION
EDGE_WEIGHT_TYPE: EXACT_2D
NODE_COORD_SECTION
1 0.00000 0.00000
2 -40 34
3 44 37
4 44 37
5 44 37
6 44 37
7 44 37
8 44 37
9 -31 -36
10 -31 -36
11 -31 -36
12 -31 -36
13 -31 -36
14 -31 -36
15 -11 -47
16 -11 -47
17 -11 -47
18 -11 -47
19 -11 -47
20 -38 -30
21 -38 -30
22 -38 -30
23 -38 -30
24 -38 -30
25 38 -36
26 38 -36
27 38 -36
28 38 -36
29 38 -36
30 38 -36
31 45 47
32 45 47
33 45 47
34 45 47
35 -40 34
36 -40 34
37 -48 35
38 -48 35
39 -48 35
40 -6 -32
41 -6 -32
42 -3 -6
43 -3 -6
44 -3 -6
45 -3 -6
46 -3 -6
47 -33 -17
48 -33 -17
49 -33 -17
50 -33 -17
51 8 4
52 8 4
53 8 4
54 8 4
55 8 4
56 -6 -30
57 -6 -30
58 -6 -30
59 -6 -30
60 -6 -30
61 -6 -30
62 -6 -30
63 6 38
64 6 38
65 6 38
66 6 38
67 -37 -42
68 -37 -42
69 -37 -42
70 -37 -42
71 -44 44
72 -44 44
73 -44 44
74 -44 44
75 -44 44
76 4 -40
77 4 -40
78 4 -40
79 21 -7
80 21 -7
81 21 -7
82 21 -7
83 21 -7
84 21 -7
85 25 18
86 25 18
87 25 18
88 25 18
89 25 18
90 10 -47
91 10 -47
92 10 -47
93 10 -47
94 10 -47
95 10 -47
96 36 49
97 36 49
98 36 49
99 2 30
100 2 30
101 2 30
102 -35 7
103 -35 7
104 -35 7
105 -35 7
106 -26 36
107 -26 36
108 -26 36
109 -26 36
110 -26 36
111 -26 36
112 -18 -7
113 -18 -7
114 1 16
115 1 16
116 1 16
117 23 44
118 23 44
119 23 44
120 -30 49
121 -30 49
122 -30 49
123 -30 49
124 -43 3
125 -43 3
126 -43 3
127 -43 3
128 -2 5
129 -2 5
130 -2 5
131 -2 5
132 39 39
133 39 39
134 39 39
135 16 -34
136 16 -34
137 -21 9
138 -21 9
139 -21 9
140 -21 9
141 -21 9
142 -12 45
143 -12 45
144 -12 45
145 -12 45
146 15 -40
147 -35 9
148 -35 9
149 -35 9
150 -35 9
151 -13 26
152 -13 26
153 -27 8
154 -27 8
155 -27 8
156 -27 8
157 0 5
158 0 5
159 0 5
160 -39 -48
161 -39 -48
162 -39 -48
163 -39 -48
164 -39 -48
165 -39 -48
166 -47 39
167 -47 39
168 -47 39
169 -47 39
170 -47 39
171 -47 39
172 -21 -10
173 -21 -10
174 -21 -10
175 -42 -25
176 -42 -25
177 -42 -25
178 -42 -25
179 -49 -13
180 -49 -13
181 -49 -13
182 -20 45
183 -20 45
184 -15 19
185 -15 19
186 -15 19
187 25 -30
188 25 -30
189 25 -30
190 25 -30
191 25 -30
192 -41 34
193 -41 34
194 -41 34
195 -41 34
196 -41 34
197 -27 -15
198 -27 -15
199 -27 -15
200 -27 -15
201 -27 -15
DEMAND_SECTION
1 0
2 20
3 20
4 10
5 5
6 1
7 1
8 1
9 20
10 20
11 1
12 1
13 1
14 1
15 20
16 20
17 1
18 1
19 1
20 10
21 5
22 1
23 1
24 1
25 20
26 20
27 5
28 1
29 1
30 1
31 10
32 1
33 1
34 1
35 20
36 5
37 10
38 5
39 1
40 20
41 1
42 20
43 1
44 1
45 1
46 1
47 20
48 1
49 1
50 1
51 20
52 5
53 1
54 1
55 1
56 20
57 10
58 5
59 1
60 1
61 1
62 1
63 10
64 5
65 1
66 1
67 20
68 10
69 5
70 1
71 20
72 1
73 1
74 1
75 1
76 20
77 20
78 10
79 20
80 10
81 5
82 1
83 1
84 1
85 10
86 1
87 1
88 1
89 1
90 20
91 10
92 1
93 1
94 1
95 1
96 10
97 5
98 1
99 20
100 20
101 1
102 20
103 10
104 5
105 1
106 20
107 10
108 5
109 1
110 1
111 1
112 20
113 5
114 20
115 20
116 1
117 10
118 5
119 1
120 20
121 20
122 1
123 1
124 10
125 1
126 1
127 1
128 20
129 1
130 1
131 1
132 10
133 5
134 1
135 20
136 1
137 20
138 20
139 5
140 1
141 1
142 20
143 20
144 5
145 1
146 20
147 20
148 5
149 1
150 1
151 20
152 5
153 20
154 20
155 5
156 1
157 10
158 5
159 1
160 20
161 20
162 5
163 1
164 1
165 1
166 20
167 20
168 5
169 1
170 1
171 1
172 20
173 20
174 1
175 20
176 10
177 5
178 1
179 20
180 10
181 1
182 20
183 10
184 10
185 5
186 1
187 10
188 5
189 1
190 1
191 1
192 20
193 20
194 1
195 1
196 1
197 20
198 10
199 5
200 1
201 1
DEPOT_SECTION
1
-1
EOF