Normalized Data/p01_6_normalized_split0.sol
200 -10 12 13 68 66 69 67 163 161 160 159 164 162 56 61 58 -11 8 9 23 20 22 19 21 175 177 174 176 198 -17 16 15 18 14 90 89 94 92 91 93 145 -36 37 38 170 167 168 166 169 165 72 71 74 73 70 184 -43 44 42 41 45 172 171 173 112 111 -52 53 54 51 50 83 78 82 79 81 80 -59 60 55 57 40 39 75 76 77 -64 63 65 62 142 144 143 141 182 181 151 128 129 -88 87 85 86 84 100 99 98 114 115 113 -104 101 102 103 146 148 147 149 130 127 156 158 157 -108 105 106 110 107 109 121 120 122 119 150 -116 118 117 97 96 95 33 31 32 30 3 4 5 6 2 7 133 131 132 -123 126 124 125 180 179 178 46 49 47 48 200 196 197 199 -135 134 28 24 26 25 27 29 187 188 190 189 186 -140 138 137 139 136 154 153 152 155 -185 183 34 35 1 192 193 191 194 195 0 





OBJ=
1607.994
BEST_KNOWN=
0.000